p cnf 72 169
1 2 3 4 5 6 9 11 13 16 0
1 2 3 4 5 6 7 10 12 14 0
1 2 3 4 6 7 8 9 11 15 0
1 2 3 4 7 8 10 12 13 16 0
1 2 5 6 7 8 9 10 13 15 0
1 2 3 5 6 7 8 9 10 11 14 16 0
2 3 4 5 6 7 8 10 11 12 13 15 0
3 4 5 6 7 8 11 12 14 16 0
1 3 5 6 9 10 11 12 13 14 0
2 4 5 6 7 9 10 11 12 13 14 15 0
1 3 6 7 8 9 10 11 12 14 15 16 0
2 4 7 8 9 10 11 12 15 16 0
1 4 5 7 9 10 13 14 15 16 0
2 6 8 9 10 11 13 14 15 16 0
3 5 7 10 11 12 13 14 15 16 0
1 4 6 8 11 12 13 14 15 16 0
-6 -7 0
-6 -10 0
-6 -16 0
-11 -7 0
-11 -10 0
-11 -1 0
-2 -14 0
-3 -15 0
-4 -10 0
-5 -8 0
-9 -12 0
-13 -7 0
-31 21 34 0
-32 22 34 0
-33 23 34 0
-26 21 34 0
-27 22 34 0
-28 23 34 0
-26 -31 22 34 0
-26 -32 23 34 0
-26 -33 34 0
-27 -31 23 34 0
-27 -32 34 0
-27 -33 21 0
-28 -31 34 0
-28 -32 21 0
-28 -33 22 0
-34 17 0
-29 17 0
-34 -29 18 0
-30 18 0
-34 -30 19 0
-24 17 0
-34 -24 18 0
-25 18 0
-34 -25 19 0
-24 -29 18 0
-34 -24 -29 19 0
-24 -30 19 0
-34 -24 -30 20 0
-25 -29 19 0
-34 -25 -29 20 0
-25 -30 20 0
-34 -25 -30 0
-40 31 43 0
-41 32 43 0
-42 33 43 0
-36 31 43 0
-37 32 43 0
-38 33 43 0
-36 -40 32 43 0
-36 -41 33 43 0
-36 -42 43 0
-37 -40 33 43 0
-37 -41 43 0
-37 -42 31 0
-38 -40 43 0
-38 -41 31 0
-38 -42 32 0
-43 29 0
-39 29 0
-43 -39 30 0
-35 29 0
-43 -35 30 0
-35 -39 30 0
-43 -35 -39 0
-7 44 0
-8 44 0
-8 -7 45 0
-4 46 0
-3 46 0
-3 -4 47 0
-46 40 48 0
-47 41 48 0
-44 40 48 0
-45 41 48 0
-44 -46 41 48 0
-44 -47 42 48 0
-45 -46 42 48 0
-45 -47 48 0
-48 39 0
-15 49 0
-11 49 0
-11 -15 50 0
-12 51 0
-16 51 0
-16 -12 52 0
-51 36 53 0
-52 37 53 0
-49 36 53 0
-50 37 53 0
-49 -51 37 53 0
-49 -52 38 53 0
-50 -51 38 53 0
-50 -52 53 0
-53 35 0
-59 26 62 0
-60 27 62 0
-61 28 62 0
-55 26 62 0
-56 27 62 0
-57 28 62 0
-55 -59 27 62 0
-55 -60 28 62 0
-55 -61 62 0
-56 -59 28 62 0
-56 -60 62 0
-56 -61 26 0
-57 -59 62 0
-57 -60 26 0
-57 -61 27 0
-62 24 0
-58 24 0
-62 -58 25 0
-54 24 0
-62 -54 25 0
-54 -58 25 0
-62 -54 -58 0
-13 63 0
-9 63 0
-9 -13 64 0
-10 65 0
-14 65 0
-14 -10 66 0
-65 59 67 0
-66 60 67 0
-63 59 67 0
-64 60 67 0
-63 -65 60 67 0
-63 -66 61 67 0
-64 -65 61 67 0
-64 -66 67 0
-67 58 0
-2 68 0
-1 68 0
-1 -2 69 0
-5 70 0
-6 70 0
-6 -5 71 0
-70 55 72 0
-71 56 72 0
-68 55 72 0
-69 56 72 0
-68 -70 56 72 0
-68 -71 57 72 0
-69 -70 57 72 0
-69 -71 72 0
-72 54 0
-17 0
-18 0
-19 0
-20 0
-23 0
